<instance format="XCSP3" type="COP">
  <variables>
    <var id="x" note="x is the number of unused bins"> 0..23 </var>
    <array id="b" note="b[i][j] indicates the weight of the jth object put in the ith bin. It is 0 if there is no object at this place." size="[23][3]"> 0 250..254 256 258 264 276 279 281..284 286 287 291 293 296 304 310 314 315 319 326 328 336 346 357 378 379 401..403 409 411 414 418 425 428 434 455 470 478 491 494 496 498 </array>
  </variables>
  <constraints>
    <group>
      <mdd>
        <list> %... </list>
        <transitions> (root,0,n3)(root,250,n3)(root,251,n5)(root,252,n7)(root,253,n10)(root,254,n10)(root,256,n12)(root,258,n14)(root,264,n16)(root,276,n16)(root,279,n18)(root,281,n19)(root,282,n22)(root,283,n24)(root,284,n25)(root,286,n28)(root,287,n30)(root,291,n31)(root,293,n33)(root,296,n35)(root,304,n38)(root,310,n40)(root,314,n41)(root,315,n43)(root,319,n45)(root,326,n47)(root,328,n49)(root,336,n51)(root,346,n53)(root,357,n54)(root,378,n55)(root,379,n56)(root,401,n57)(root,402,n59)(root,403,n60)(root,409,n61)(root,411,n62)(root,414,n63)(root,418,n64)(root,425,n65)(root,428,n66)(root,434,n67)(root,455,n68)(root,470,n69)(root,478,n70)(root,491,n71)(root,494,n72)(root,496,n73)(root,498,n74)(n3,0,n4)(n4,0,nodeT)(n5,0,n4)(n5,250,n4)(n5,251,n6)(n6,0,nodeT)(n6,250,nodeT)(n7,0,n4)(n7,250,n4)(n7,251,n8)(n7,252,n9)(n8,0,nodeT)(n8,250,nodeT)(n8,251,nodeT)(n9,0,nodeT)(n9,250,nodeT)(n9,251,nodeT)(n9,252,nodeT)(n10,0,n4)(n10,250,n4)(n10,251,n8)(n10,252,n9)(n10,253,n11)(n11,0,nodeT)(n11,250,nodeT)(n11,251,nodeT)(n11,252,nodeT)(n11,253,nodeT)(n12,0,n4)(n12,250,n4)(n12,251,n8)(n12,252,n9)(n12,253,n11)(n12,254,n11)(n12,256,n13)(n13,0,nodeT)(n13,250,nodeT)(n13,251,nodeT)(n13,252,nodeT)(n13,253,nodeT)(n13,254,nodeT)(n14,0,n4)(n14,250,n4)(n14,251,n8)(n14,252,n9)(n14,253,n11)(n14,254,n11)(n14,256,n15)(n15,0,nodeT)(n15,250,nodeT)(n15,251,nodeT)(n15,252,nodeT)(n15,253,nodeT)(n15,254,nodeT)(n15,256,nodeT)(n16,0,n4)(n16,250,n4)(n16,251,n8)(n16,252,n9)(n16,253,n11)(n16,254,n11)(n16,256,n15)(n16,258,n15)(n16,264,n17)(n17,0,nodeT)(n17,250,nodeT)(n17,251,nodeT)(n17,252,nodeT)(n17,253,nodeT)(n17,254,nodeT)(n17,256,nodeT)(n17,258,nodeT)(n17,264,nodeT)(n18,0,n4)(n18,250,n4)(n18,251,n8)(n18,252,n9)(n18,253,n11)(n18,254,n11)(n18,256,n15)(n18,258,n15)(n18,264,n17)(n18,276,n17)(n19,0,n4)(n19,250,n4)(n19,251,n8)(n19,252,n9)(n19,253,n11)(n19,254,n11)(n19,256,n15)(n19,258,n15)(n19,264,n17)(n19,276,n17)(n19,279,n20)(n19,281,n21)(n20,0,nodeT)(n20,250,nodeT)(n20,251,nodeT)(n20,252,nodeT)(n20,253,nodeT)(n20,254,nodeT)(n20,256,nodeT)(n20,258,nodeT)(n20,264,nodeT)(n20,276,nodeT)(n21,0,nodeT)(n21,250,nodeT)(n21,251,nodeT)(n21,252,nodeT)(n21,253,nodeT)(n21,254,nodeT)(n21,256,nodeT)(n21,258,nodeT)(n21,264,nodeT)(n21,276,nodeT)(n21,279,nodeT)(n22,0,n4)(n22,250,n4)(n22,251,n8)(n22,252,n9)(n22,253,n11)(n22,254,n11)(n22,256,n15)(n22,258,n15)(n22,264,n17)(n22,276,n17)(n22,279,n20)(n22,281,n23)(n23,0,nodeT)(n23,250,nodeT)(n23,251,nodeT)(n23,252,nodeT)(n23,253,nodeT)(n23,254,nodeT)(n23,256,nodeT)(n23,258,nodeT)(n23,264,nodeT)(n23,276,nodeT)(n23,279,nodeT)(n23,281,nodeT)(n24,0,n4)(n24,250,n4)(n24,251,n8)(n24,252,n9)(n24,253,n11)(n24,254,n11)(n24,256,n15)(n24,258,n15)(n24,264,n17)(n24,276,n17)(n24,279,n20)(n24,281,n23)(n24,282,n23)(n25,0,n4)(n25,250,n4)(n25,251,n8)(n25,252,n9)(n25,253,n11)(n25,254,n11)(n25,256,n15)(n25,258,n15)(n25,264,n17)(n25,276,n17)(n25,279,n20)(n25,281,n23)(n25,282,n23)(n25,283,n26)(n25,284,n27)(n26,0,nodeT)(n26,250,nodeT)(n26,251,nodeT)(n26,252,nodeT)(n26,253,nodeT)(n26,254,nodeT)(n26,256,nodeT)(n26,258,nodeT)(n26,264,nodeT)(n26,276,nodeT)(n26,279,nodeT)(n26,281,nodeT)(n26,282,nodeT)(n27,0,nodeT)(n27,250,nodeT)(n27,251,nodeT)(n27,252,nodeT)(n27,253,nodeT)(n27,254,nodeT)(n27,256,nodeT)(n27,258,nodeT)(n27,264,nodeT)(n27,276,nodeT)(n27,279,nodeT)(n27,281,nodeT)(n27,282,nodeT)(n27,283,nodeT)(n28,0,n4)(n28,250,n4)(n28,251,n8)(n28,252,n9)(n28,253,n11)(n28,254,n11)(n28,256,n15)(n28,258,n15)(n28,264,n17)(n28,276,n17)(n28,279,n20)(n28,281,n23)(n28,282,n23)(n28,283,n26)(n28,284,n29)(n29,0,nodeT)(n29,250,nodeT)(n29,251,nodeT)(n29,252,nodeT)(n29,253,nodeT)(n29,254,nodeT)(n29,256,nodeT)(n29,258,nodeT)(n29,264,nodeT)(n29,276,nodeT)(n29,279,nodeT)(n29,281,nodeT)(n29,282,nodeT)(n29,283,nodeT)(n29,284,nodeT)(n30,0,n4)(n30,250,n4)(n30,251,n8)(n30,252,n9)(n30,253,n11)(n30,254,n11)(n30,256,n15)(n30,258,n15)(n30,264,n17)(n30,276,n17)(n30,279,n20)(n30,281,n23)(n30,282,n23)(n30,283,n26)(n30,284,n29)(n30,286,n29)(n31,0,n4)(n31,250,n4)(n31,251,n8)(n31,252,n9)(n31,253,n11)(n31,254,n11)(n31,256,n15)(n31,258,n15)(n31,264,n17)(n31,276,n17)(n31,279,n20)(n31,281,n23)(n31,282,n23)(n31,283,n26)(n31,284,n29)(n31,286,n29)(n31,287,n32)(n32,0,nodeT)(n32,250,nodeT)(n32,251,nodeT)(n32,252,nodeT)(n32,253,nodeT)(n32,254,nodeT)(n32,256,nodeT)(n32,258,nodeT)(n32,264,nodeT)(n32,276,nodeT)(n32,279,nodeT)(n32,281,nodeT)(n32,282,nodeT)(n32,283,nodeT)(n32,284,nodeT)(n32,286,nodeT)(n33,0,n4)(n33,250,n4)(n33,251,n8)(n33,252,n9)(n33,253,n11)(n33,254,n11)(n33,256,n15)(n33,258,n15)(n33,264,n17)(n33,276,n17)(n33,279,n20)(n33,281,n23)(n33,282,n23)(n33,283,n26)(n33,284,n29)(n33,286,n29)(n33,287,n32)(n33,291,n34)(n34,0,nodeT)(n34,250,nodeT)(n34,251,nodeT)(n34,252,nodeT)(n34,253,nodeT)(n34,254,nodeT)(n34,256,nodeT)(n34,258,nodeT)(n34,264,nodeT)(n34,276,nodeT)(n34,279,nodeT)(n34,281,nodeT)(n34,282,nodeT)(n34,283,nodeT)(n34,284,nodeT)(n34,286,nodeT)(n34,287,nodeT)(n35,0,n4)(n35,250,n4)(n35,251,n8)(n35,252,n9)(n35,253,n11)(n35,254,n11)(n35,256,n15)(n35,258,n15)(n35,264,n17)(n35,276,n17)(n35,279,n20)(n35,281,n23)(n35,282,n23)(n35,283,n26)(n35,284,n29)(n35,286,n29)(n35,287,n32)(n35,291,n34)(n35,293,n36)(n35,296,n37)(n36,0,nodeT)(n36,250,nodeT)(n36,251,nodeT)(n36,252,nodeT)(n36,253,nodeT)(n36,254,nodeT)(n36,256,nodeT)(n36,258,nodeT)(n36,264,nodeT)(n36,276,nodeT)(n36,279,nodeT)(n36,281,nodeT)(n36,282,nodeT)(n36,283,nodeT)(n36,284,nodeT)(n36,286,nodeT)(n36,287,nodeT)(n36,291,nodeT)(n37,0,nodeT)(n37,250,nodeT)(n37,251,nodeT)(n37,252,nodeT)(n37,253,nodeT)(n37,254,nodeT)(n37,256,nodeT)(n37,258,nodeT)(n37,264,nodeT)(n37,276,nodeT)(n37,279,nodeT)(n37,281,nodeT)(n37,282,nodeT)(n37,283,nodeT)(n37,284,nodeT)(n37,286,nodeT)(n37,287,nodeT)(n37,291,nodeT)(n37,293,nodeT)(n38,0,n4)(n38,250,n4)(n38,251,n8)(n38,252,n9)(n38,253,n11)(n38,254,n11)(n38,256,n15)(n38,258,n15)(n38,264,n17)(n38,276,n17)(n38,279,n20)(n38,281,n23)(n38,282,n23)(n38,283,n26)(n38,284,n29)(n38,286,n29)(n38,287,n32)(n38,291,n34)(n38,293,n36)(n38,296,n39)(n39,0,nodeT)(n39,250,nodeT)(n39,251,nodeT)(n39,252,nodeT)(n39,253,nodeT)(n39,254,nodeT)(n39,256,nodeT)(n39,258,nodeT)(n39,264,nodeT)(n39,276,nodeT)(n39,279,nodeT)(n39,281,nodeT)(n39,282,nodeT)(n39,283,nodeT)(n39,284,nodeT)(n39,286,nodeT)(n39,287,nodeT)(n39,291,nodeT)(n39,293,nodeT)(n39,296,nodeT)(n40,0,n4)(n40,250,n4)(n40,251,n8)(n40,252,n9)(n40,253,n11)(n40,254,n11)(n40,256,n15)(n40,258,n15)(n40,264,n17)(n40,276,n17)(n40,279,n20)(n40,281,n23)(n40,282,n23)(n40,283,n26)(n40,284,n29)(n40,286,n29)(n40,287,n32)(n40,291,n34)(n40,293,n36)(n40,296,n39)(n40,304,n39)(n41,0,n4)(n41,250,n4)(n41,251,n8)(n41,252,n9)(n41,253,n11)(n41,254,n11)(n41,256,n15)(n41,258,n15)(n41,264,n17)(n41,276,n17)(n41,279,n20)(n41,281,n23)(n41,282,n23)(n41,283,n26)(n41,284,n29)(n41,286,n29)(n41,287,n32)(n41,291,n34)(n41,293,n36)(n41,296,n39)(n41,304,n39)(n41,310,n42)(n42,0,nodeT)(n42,250,nodeT)(n42,251,nodeT)(n42,252,nodeT)(n42,253,nodeT)(n42,254,nodeT)(n42,256,nodeT)(n42,258,nodeT)(n42,264,nodeT)(n42,276,nodeT)(n42,279,nodeT)(n42,281,nodeT)(n42,282,nodeT)(n42,283,nodeT)(n42,284,nodeT)(n42,286,nodeT)(n42,287,nodeT)(n42,291,nodeT)(n42,293,nodeT)(n42,296,nodeT)(n42,304,nodeT)(n43,0,n4)(n43,250,n4)(n43,251,n8)(n43,252,n9)(n43,253,n11)(n43,254,n11)(n43,256,n15)(n43,258,n15)(n43,264,n17)(n43,276,n17)(n43,279,n20)(n43,281,n23)(n43,282,n23)(n43,283,n26)(n43,284,n29)(n43,286,n29)(n43,287,n32)(n43,291,n34)(n43,293,n36)(n43,296,n39)(n43,304,n39)(n43,310,n42)(n43,314,n44)(n44,0,nodeT)(n44,250,nodeT)(n44,251,nodeT)(n44,252,nodeT)(n44,253,nodeT)(n44,254,nodeT)(n44,256,nodeT)(n44,258,nodeT)(n44,264,nodeT)(n44,276,nodeT)(n44,279,nodeT)(n44,281,nodeT)(n44,282,nodeT)(n44,283,nodeT)(n44,284,nodeT)(n44,286,nodeT)(n44,287,nodeT)(n44,291,nodeT)(n44,293,nodeT)(n44,296,nodeT)(n44,304,nodeT)(n44,310,nodeT)(n45,0,n4)(n45,250,n4)(n45,251,n8)(n45,252,n9)(n45,253,n11)(n45,254,n11)(n45,256,n15)(n45,258,n15)(n45,264,n17)(n45,276,n17)(n45,279,n20)(n45,281,n23)(n45,282,n23)(n45,283,n26)(n45,284,n29)(n45,286,n29)(n45,287,n32)(n45,291,n34)(n45,293,n36)(n45,296,n39)(n45,304,n39)(n45,310,n42)(n45,314,n44)(n45,315,n46)(n46,0,nodeT)(n46,250,nodeT)(n46,251,nodeT)(n46,252,nodeT)(n46,253,nodeT)(n46,254,nodeT)(n46,256,nodeT)(n46,258,nodeT)(n46,264,nodeT)(n46,276,nodeT)(n46,279,nodeT)(n46,281,nodeT)(n46,282,nodeT)(n46,283,nodeT)(n46,284,nodeT)(n46,286,nodeT)(n46,287,nodeT)(n46,291,nodeT)(n46,293,nodeT)(n46,296,nodeT)(n46,304,nodeT)(n46,310,nodeT)(n46,314,nodeT)(n47,0,n4)(n47,250,n4)(n47,251,n8)(n47,252,n9)(n47,253,n11)(n47,254,n11)(n47,256,n15)(n47,258,n15)(n47,264,n17)(n47,276,n17)(n47,279,n20)(n47,281,n23)(n47,282,n23)(n47,283,n26)(n47,284,n29)(n47,286,n29)(n47,287,n32)(n47,291,n34)(n47,293,n36)(n47,296,n39)(n47,304,n39)(n47,310,n42)(n47,314,n44)(n47,315,n46)(n47,319,n48)(n48,0,nodeT)(n48,250,nodeT)(n48,251,nodeT)(n48,252,nodeT)(n48,253,nodeT)(n48,254,nodeT)(n48,256,nodeT)(n48,258,nodeT)(n48,264,nodeT)(n48,276,nodeT)(n48,279,nodeT)(n48,281,nodeT)(n48,282,nodeT)(n48,283,nodeT)(n48,284,nodeT)(n48,286,nodeT)(n48,287,nodeT)(n48,291,nodeT)(n48,293,nodeT)(n48,296,nodeT)(n48,304,nodeT)(n48,310,nodeT)(n48,314,nodeT)(n48,315,nodeT)(n49,0,n4)(n49,250,n4)(n49,251,n8)(n49,252,n9)(n49,253,n11)(n49,254,n11)(n49,256,n15)(n49,258,n15)(n49,264,n17)(n49,276,n17)(n49,279,n20)(n49,281,n23)(n49,282,n23)(n49,283,n26)(n49,284,n29)(n49,286,n29)(n49,287,n32)(n49,291,n34)(n49,293,n36)(n49,296,n39)(n49,304,n39)(n49,310,n42)(n49,314,n44)(n49,315,n46)(n49,319,n48)(n49,326,n50)(n50,0,nodeT)(n50,250,nodeT)(n50,251,nodeT)(n50,252,nodeT)(n50,253,nodeT)(n50,254,nodeT)(n50,256,nodeT)(n50,258,nodeT)(n50,264,nodeT)(n50,276,nodeT)(n50,279,nodeT)(n50,281,nodeT)(n50,282,nodeT)(n50,283,nodeT)(n50,284,nodeT)(n50,286,nodeT)(n50,287,nodeT)(n50,291,nodeT)(n50,293,nodeT)(n50,296,nodeT)(n50,304,nodeT)(n50,310,nodeT)(n50,314,nodeT)(n50,315,nodeT)(n50,319,nodeT)(n51,0,n4)(n51,250,n4)(n51,251,n8)(n51,252,n9)(n51,253,n11)(n51,254,n11)(n51,256,n15)(n51,258,n15)(n51,264,n17)(n51,276,n17)(n51,279,n20)(n51,281,n23)(n51,282,n23)(n51,283,n26)(n51,284,n29)(n51,286,n29)(n51,287,n32)(n51,291,n34)(n51,293,n36)(n51,296,n39)(n51,304,n39)(n51,310,n42)(n51,314,n44)(n51,315,n46)(n51,319,n48)(n51,326,n50)(n51,328,n52)(n52,0,nodeT)(n52,250,nodeT)(n52,251,nodeT)(n52,252,nodeT)(n52,253,nodeT)(n52,254,nodeT)(n52,256,nodeT)(n52,258,nodeT)(n52,264,nodeT)(n52,276,nodeT)(n52,279,nodeT)(n52,281,nodeT)(n52,282,nodeT)(n52,283,nodeT)(n52,284,nodeT)(n52,286,nodeT)(n52,287,nodeT)(n52,291,nodeT)(n52,293,nodeT)(n52,296,nodeT)(n52,304,nodeT)(n52,310,nodeT)(n52,314,nodeT)(n52,315,nodeT)(n52,319,nodeT)(n52,326,nodeT)(n53,0,n4)(n53,250,n4)(n53,251,n8)(n53,252,n9)(n53,253,n11)(n53,254,n11)(n53,256,n15)(n53,258,n15)(n53,264,n17)(n53,276,n17)(n53,279,n20)(n53,281,n23)(n53,282,n23)(n53,283,n26)(n53,284,n29)(n53,286,n29)(n53,287,n32)(n53,291,n34)(n53,293,n36)(n53,296,n39)(n53,304,n39)(n53,310,n42)(n53,314,n44)(n53,315,n46)(n53,319,n48)(n53,326,n50)(n53,328,n52)(n53,336,n48)(n54,0,n4)(n54,250,n4)(n54,251,n8)(n54,252,n9)(n54,253,n11)(n54,254,n11)(n54,256,n15)(n54,258,n15)(n54,264,n17)(n54,276,n17)(n54,279,n20)(n54,281,n23)(n54,282,n23)(n54,283,n26)(n54,284,n29)(n54,286,n29)(n54,287,n32)(n54,291,n34)(n54,293,n36)(n54,296,n39)(n54,304,n39)(n54,310,n42)(n54,314,n44)(n54,315,n46)(n54,319,n48)(n54,326,n48)(n54,328,n48)(n54,336,n42)(n54,346,n39)(n55,0,n4)(n55,250,n4)(n55,251,n8)(n55,252,n9)(n55,253,n11)(n55,254,n11)(n55,256,n15)(n55,258,n15)(n55,264,n17)(n55,276,n17)(n55,279,n20)(n55,281,n23)(n55,282,n23)(n55,283,n26)(n55,284,n29)(n55,286,n29)(n55,287,n32)(n55,291,n34)(n55,293,n36)(n55,296,n39)(n55,304,n39)(n55,310,n42)(n55,314,n42)(n55,315,n42)(n55,319,n39)(n55,326,n39)(n55,328,n37)(n55,336,n32)(n55,346,n20)(n55,357,n17)(n56,0,n4)(n56,250,n4)(n56,251,n8)(n56,252,n9)(n56,253,n11)(n56,254,n11)(n56,256,n15)(n56,258,n15)(n56,264,n17)(n56,276,n17)(n56,279,n20)(n56,281,n23)(n56,282,n23)(n56,283,n26)(n56,284,n29)(n56,286,n29)(n56,287,n32)(n56,291,n34)(n56,293,n36)(n56,296,n39)(n56,304,n39)(n56,310,n42)(n56,314,n42)(n56,315,n42)(n56,319,n39)(n56,326,n37)(n56,328,n37)(n56,336,n29)(n56,346,n17)(n56,357,n17)(n56,378,n4)(n56,379,n4)(n57,0,n4)(n57,250,n4)(n57,251,n8)(n57,252,n9)(n57,253,n11)(n57,254,n11)(n57,256,n15)(n57,258,n15)(n57,264,n17)(n57,276,n17)(n57,279,n20)(n57,281,n23)(n57,282,n23)(n57,283,n26)(n57,284,n29)(n57,286,n29)(n57,287,n32)(n57,291,n34)(n57,293,n36)(n57,296,n39)(n57,304,n37)(n57,310,n34)(n57,314,n29)(n57,315,n29)(n57,319,n21)(n57,326,n17)(n57,328,n17)(n57,336,n58)(n57,346,n11)(n57,357,n4)(n57,378,n4)(n57,379,n4)(n58,0,nodeT)(n58,250,nodeT)(n58,251,nodeT)(n58,252,nodeT)(n58,253,nodeT)(n58,254,nodeT)(n58,256,nodeT)(n58,258,nodeT)(n59,0,n4)(n59,250,n4)(n59,251,n8)(n59,252,n9)(n59,253,n11)(n59,254,n11)(n59,256,n15)(n59,258,n15)(n59,264,n17)(n59,276,n17)(n59,279,n20)(n59,281,n23)(n59,282,n23)(n59,283,n26)(n59,284,n29)(n59,286,n29)(n59,287,n32)(n59,291,n34)(n59,293,n36)(n59,296,n39)(n59,304,n37)(n59,310,n34)(n59,314,n29)(n59,315,n27)(n59,319,n21)(n59,326,n17)(n59,328,n17)(n59,336,n58)(n59,346,n9)(n59,357,n4)(n59,378,n4)(n59,379,n4)(n59,401,n4)(n60,0,n4)(n60,250,n4)(n60,251,n8)(n60,252,n9)(n60,253,n11)(n60,254,n11)(n60,256,n15)(n60,258,n15)(n60,264,n17)(n60,276,n17)(n60,279,n20)(n60,281,n23)(n60,282,n23)(n60,283,n26)(n60,284,n29)(n60,286,n29)(n60,287,n32)(n60,291,n34)(n60,293,n36)(n60,296,n39)(n60,304,n37)(n60,310,n34)(n60,314,n27)(n60,315,n26)(n60,319,n20)(n60,326,n17)(n60,328,n17)(n60,336,n58)(n60,346,n8)(n60,357,n4)(n60,378,n4)(n60,379,n4)(n60,401,n4)(n60,402,n4)(n61,0,n4)(n61,250,n4)(n61,251,n8)(n61,252,n9)(n61,253,n11)(n61,254,n11)(n61,256,n15)(n61,258,n15)(n61,264,n17)(n61,276,n17)(n61,279,n20)(n61,281,n23)(n61,282,n23)(n61,283,n26)(n61,284,n29)(n61,286,n29)(n61,287,n32)(n61,291,n34)(n61,293,n36)(n61,296,n37)(n61,304,n34)(n61,310,n23)(n61,314,n20)(n61,315,n20)(n61,319,n17)(n61,326,n17)(n61,328,n58)(n61,336,n13)(n61,346,n4)(n61,357,n4)(n61,378,n4)(n61,379,n4)(n61,401,n4)(n61,402,n4)(n61,403,n4)(n62,0,n4)(n62,250,n4)(n62,251,n8)(n62,252,n9)(n62,253,n11)(n62,254,n11)(n62,256,n15)(n62,258,n15)(n62,264,n17)(n62,276,n17)(n62,279,n20)(n62,281,n23)(n62,282,n23)(n62,283,n26)(n62,284,n29)(n62,286,n29)(n62,287,n32)(n62,291,n34)(n62,293,n36)(n62,296,n37)(n62,304,n29)(n62,310,n21)(n62,314,n17)(n62,315,n17)(n62,319,n17)(n62,326,n58)(n62,328,n58)(n62,336,n11)(n62,346,n4)(n62,357,n4)(n62,378,n4)(n62,379,n4)(n62,401,n4)(n62,402,n4)(n62,403,n4)(n62,409,n4)(n63,0,n4)(n63,250,n4)(n63,251,n8)(n63,252,n9)(n63,253,n11)(n63,254,n11)(n63,256,n15)(n63,258,n15)(n63,264,n17)(n63,276,n17)(n63,279,n20)(n63,281,n23)(n63,282,n23)(n63,283,n26)(n63,284,n29)(n63,286,n29)(n63,287,n32)(n63,291,n34)(n63,293,n36)(n63,296,n34)(n63,304,n26)(n63,310,n20)(n63,314,n17)(n63,315,n17)(n63,319,n17)(n63,326,n58)(n63,328,n58)(n63,336,n6)(n63,346,n4)(n63,357,n4)(n63,378,n4)(n63,379,n4)(n63,401,n4)(n63,402,n4)(n63,403,n4)(n63,409,n4)(n63,411,n4)(n64,0,n4)(n64,250,n4)(n64,251,n8)(n64,252,n9)(n64,253,n11)(n64,254,n11)(n64,256,n15)(n64,258,n15)(n64,264,n17)(n64,276,n17)(n64,279,n20)(n64,281,n23)(n64,282,n23)(n64,283,n26)(n64,284,n29)(n64,286,n29)(n64,287,n32)(n64,291,n34)(n64,293,n34)(n64,296,n32)(n64,304,n20)(n64,310,n17)(n64,314,n17)(n64,315,n17)(n64,319,n58)(n64,326,n15)(n64,328,n13)(n64,336,n4)(n64,346,n4)(n64,357,n4)(n64,378,n4)(n64,379,n4)(n64,401,n4)(n64,402,n4)(n64,403,n4)(n64,409,n4)(n64,411,n4)(n64,414,n4)(n65,0,n4)(n65,250,n4)(n65,251,n8)(n65,252,n9)(n65,253,n11)(n65,254,n11)(n65,256,n15)(n65,258,n15)(n65,264,n17)(n65,276,n17)(n65,279,n20)(n65,281,n23)(n65,282,n23)(n65,283,n26)(n65,284,n29)(n65,286,n29)(n65,287,n32)(n65,291,n29)(n65,293,n26)(n65,296,n21)(n65,304,n17)(n65,310,n17)(n65,314,n58)(n65,315,n58)(n65,319,n15)(n65,326,n4)(n65,328,n4)(n65,336,n4)(n65,346,n4)(n65,357,n4)(n65,378,n4)(n65,379,n4)(n65,401,n4)(n65,402,n4)(n65,403,n4)(n65,409,n4)(n65,411,n4)(n65,414,n4)(n65,418,n4)(n66,0,n4)(n66,250,n4)(n66,251,n8)(n66,252,n9)(n66,253,n11)(n66,254,n11)(n66,256,n15)(n66,258,n15)(n66,264,n17)(n66,276,n17)(n66,279,n20)(n66,281,n23)(n66,282,n23)(n66,283,n26)(n66,284,n29)(n66,286,n29)(n66,287,n29)(n66,291,n23)(n66,293,n21)(n66,296,n20)(n66,304,n17)(n66,310,n58)(n66,314,n58)(n66,315,n15)(n66,319,n11)(n66,326,n4)(n66,328,n4)(n66,336,n4)(n66,346,n4)(n66,357,n4)(n66,378,n4)(n66,379,n4)(n66,401,n4)(n66,402,n4)(n66,403,n4)(n66,409,n4)(n66,411,n4)(n66,414,n4)(n66,418,n4)(n66,425,n4)(n67,0,n4)(n67,250,n4)(n67,251,n8)(n67,252,n9)(n67,253,n11)(n67,254,n11)(n67,256,n15)(n67,258,n15)(n67,264,n17)(n67,276,n17)(n67,279,n20)(n67,281,n23)(n67,282,n23)(n67,283,n26)(n67,284,n26)(n67,286,n21)(n67,287,n21)(n67,291,n17)(n67,293,n17)(n67,296,n17)(n67,304,n58)(n67,310,n15)(n67,314,n9)(n67,315,n8)(n67,319,n4)(n67,326,n4)(n67,328,n4)(n67,336,n4)(n67,346,n4)(n67,357,n4)(n67,378,n4)(n67,379,n4)(n67,401,n4)(n67,402,n4)(n67,403,n4)(n67,409,n4)(n67,411,n4)(n67,414,n4)(n67,418,n4)(n67,425,n4)(n67,428,n4)(n68,0,n4)(n68,250,n4)(n68,251,n8)(n68,252,n9)(n68,253,n11)(n68,254,n11)(n68,256,n15)(n68,258,n15)(n68,264,n17)(n68,276,n17)(n68,279,n17)(n68,281,n17)(n68,282,n58)(n68,283,n58)(n68,284,n58)(n68,286,n58)(n68,287,n58)(n68,291,n13)(n68,293,n9)(n68,296,n4)(n68,304,n4)(n68,310,n4)(n68,314,n4)(n68,315,n4)(n68,319,n4)(n68,326,n4)(n68,328,n4)(n68,336,n4)(n68,346,n4)(n68,357,n4)(n68,378,n4)(n68,379,n4)(n68,401,n4)(n68,402,n4)(n68,403,n4)(n68,409,n4)(n68,411,n4)(n68,414,n4)(n68,418,n4)(n68,425,n4)(n68,428,n4)(n68,434,n4)(n69,0,n4)(n69,250,n4)(n69,251,n8)(n69,252,n9)(n69,253,n11)(n69,254,n11)(n69,256,n15)(n69,258,n15)(n69,264,n17)(n69,276,n13)(n69,279,n8)(n69,281,n4)(n69,282,n4)(n69,283,n4)(n69,284,n4)(n69,286,n4)(n69,287,n4)(n69,291,n4)(n69,293,n4)(n69,296,n4)(n69,304,n4)(n69,310,n4)(n69,314,n4)(n69,315,n4)(n69,319,n4)(n69,326,n4)(n69,328,n4)(n69,336,n4)(n69,346,n4)(n69,357,n4)(n69,378,n4)(n69,379,n4)(n69,401,n4)(n69,402,n4)(n69,403,n4)(n69,409,n4)(n69,411,n4)(n69,414,n4)(n69,418,n4)(n69,425,n4)(n69,428,n4)(n69,434,n4)(n69,455,n4)(n70,0,n4)(n70,250,n4)(n70,251,n8)(n70,252,n9)(n70,253,n11)(n70,254,n11)(n70,256,n15)(n70,258,n15)(n70,264,n58)(n70,276,n4)(n70,279,n4)(n70,281,n4)(n70,282,n4)(n70,283,n4)(n70,284,n4)(n70,286,n4)(n70,287,n4)(n70,291,n4)(n70,293,n4)(n70,296,n4)(n70,304,n4)(n70,310,n4)(n70,314,n4)(n70,315,n4)(n70,319,n4)(n70,326,n4)(n70,328,n4)(n70,336,n4)(n70,346,n4)(n70,357,n4)(n70,378,n4)(n70,379,n4)(n70,401,n4)(n70,402,n4)(n70,403,n4)(n70,409,n4)(n70,411,n4)(n70,414,n4)(n70,418,n4)(n70,425,n4)(n70,428,n4)(n70,434,n4)(n70,455,n4)(n70,470,n4)(n71,0,n4)(n71,250,n4)(n71,251,n8)(n71,252,n9)(n71,253,n11)(n71,254,n11)(n71,256,n11)(n71,258,n8)(n71,264,n4)(n71,276,n4)(n71,279,n4)(n71,281,n4)(n71,282,n4)(n71,283,n4)(n71,284,n4)(n71,286,n4)(n71,287,n4)(n71,291,n4)(n71,293,n4)(n71,296,n4)(n71,304,n4)(n71,310,n4)(n71,314,n4)(n71,315,n4)(n71,319,n4)(n71,326,n4)(n71,328,n4)(n71,336,n4)(n71,346,n4)(n71,357,n4)(n71,378,n4)(n71,379,n4)(n71,401,n4)(n71,402,n4)(n71,403,n4)(n71,409,n4)(n71,411,n4)(n71,414,n4)(n71,418,n4)(n71,425,n4)(n71,428,n4)(n71,434,n4)(n71,455,n4)(n71,470,n4)(n71,478,n4)(n72,0,n4)(n72,250,n4)(n72,251,n8)(n72,252,n9)(n72,253,n11)(n72,254,n9)(n72,256,n6)(n72,258,n4)(n72,264,n4)(n72,276,n4)(n72,279,n4)(n72,281,n4)(n72,282,n4)(n72,283,n4)(n72,284,n4)(n72,286,n4)(n72,287,n4)(n72,291,n4)(n72,293,n4)(n72,296,n4)(n72,304,n4)(n72,310,n4)(n72,314,n4)(n72,315,n4)(n72,319,n4)(n72,326,n4)(n72,328,n4)(n72,336,n4)(n72,346,n4)(n72,357,n4)(n72,378,n4)(n72,379,n4)(n72,401,n4)(n72,402,n4)(n72,403,n4)(n72,409,n4)(n72,411,n4)(n72,414,n4)(n72,418,n4)(n72,425,n4)(n72,428,n4)(n72,434,n4)(n72,455,n4)(n72,470,n4)(n72,478,n4)(n72,491,n4)(n73,0,n4)(n73,250,n4)(n73,251,n8)(n73,252,n9)(n73,253,n8)(n73,254,n6)(n73,256,n4)(n73,258,n4)(n73,264,n4)(n73,276,n4)(n73,279,n4)(n73,281,n4)(n73,282,n4)(n73,283,n4)(n73,284,n4)(n73,286,n4)(n73,287,n4)(n73,291,n4)(n73,293,n4)(n73,296,n4)(n73,304,n4)(n73,310,n4)(n73,314,n4)(n73,315,n4)(n73,319,n4)(n73,326,n4)(n73,328,n4)(n73,336,n4)(n73,346,n4)(n73,357,n4)(n73,378,n4)(n73,379,n4)(n73,401,n4)(n73,402,n4)(n73,403,n4)(n73,409,n4)(n73,411,n4)(n73,414,n4)(n73,418,n4)(n73,425,n4)(n73,428,n4)(n73,434,n4)(n73,455,n4)(n73,470,n4)(n73,478,n4)(n73,491,n4)(n73,494,n4)(n74,0,n4)(n74,250,n4)(n74,251,n8)(n74,252,n6)(n74,253,n4)(n74,254,n4)(n74,256,n4)(n74,258,n4)(n74,264,n4)(n74,276,n4)(n74,279,n4)(n74,281,n4)(n74,282,n4)(n74,283,n4)(n74,284,n4)(n74,286,n4)(n74,287,n4)(n74,291,n4)(n74,293,n4)(n74,296,n4)(n74,304,n4)(n74,310,n4)(n74,314,n4)(n74,315,n4)(n74,319,n4)(n74,326,n4)(n74,328,n4)(n74,336,n4)(n74,346,n4)(n74,357,n4)(n74,378,n4)(n74,379,n4)(n74,401,n4)(n74,402,n4)(n74,403,n4)(n74,409,n4)(n74,411,n4)(n74,414,n4)(n74,418,n4)(n74,425,n4)(n74,428,n4)(n74,434,n4)(n74,455,n4)(n74,470,n4)(n74,478,n4)(n74,491,n4)(n74,494,n4)(n74,496,n4) </transitions>
      </mdd>
      <args> b[0][] </args>
      <args> b[1][] </args>
      <args> b[2][] </args>
      <args> b[3][] </args>
      <args> b[4][] </args>
      <args> b[5][] </args>
      <args> b[6][] </args>
      <args> b[7][] </args>
      <args> b[8][] </args>
      <args> b[9][] </args>
      <args> b[10][] </args>
      <args> b[11][] </args>
      <args> b[12][] </args>
      <args> b[13][] </args>
      <args> b[14][] </args>
      <args> b[15][] </args>
      <args> b[16][] </args>
      <args> b[17][] </args>
      <args> b[18][] </args>
      <args> b[19][] </args>
      <args> b[20][] </args>
      <args> b[21][] </args>
      <args> b[22][] </args>
    </group>
    <cardinality>
      <list> b[][] </list>
      <values> 0 250 251 252 253 254 256 258 264 276 279 281 282 283 284 286 287 291 293 296 304 310 314 315 319 326 328 336 346 357 378 379 401 402 403 409 411 414 418 425 428 434 455 470 478 491 494 496 498 </values>
      <occurs> 9 1 2 3 3 1 2 1 3 1 1 2 1 1 2 1 1 1 1 2 1 1 1 1 1 1 1 1 1 1 1 2 1 1 1 1 1 1 1 1 1 1 1 1 1 1 1 1 1 </occurs>
    </cardinality>
    <lex class="symmetryBreaking">
      <list> b[0][] </list>
      <list> b[1][] </list>
      <list> b[2][] </list>
      <list> b[3][] </list>
      <list> b[4][] </list>
      <list> b[5][] </list>
      <list> b[6][] </list>
      <list> b[7][] </list>
      <list> b[8][] </list>
      <list> b[9][] </list>
      <list> b[10][] </list>
      <list> b[11][] </list>
      <list> b[12][] </list>
      <list> b[13][] </list>
      <list> b[14][] </list>
      <list> b[15][] </list>
      <list> b[16][] </list>
      <list> b[17][] </list>
      <list> b[18][] </list>
      <list> b[19][] </list>
      <list> b[20][] </list>
      <list> b[21][] </list>
      <list> b[22][] </list>
      <operator> ge </operator>
    </lex>
    <count>
      <list> b[][0] </list>
      <values> 0 </values>
      <condition> (eq,x) </condition>
    </count>
  </constraints>
  <objectives>
    <maximize> x </maximize>
  </objectives>
</instance>
